column=7;
row=7;
max=4;
left=[0, 2, 4, 0, 1, 0, 1];
right=[1, 1, 3, 2, 0, 0, 0];
top=[0, 3, 0, 2, 4, 1, 1];
bottom=[1, 1, 2, 0, 0, 4, 4];
Board=[|0,0,3,0,0,0,1|0,0,0,0,0,0,0|4,0,0,0,1,0,3|0,0,0,0,0,2,0|0,0,1,4,0,0,0|3,1,2,0,0,0,4|0,0,0,3,2,4,0|]